models/UNED_cnf/all_models/WeaFQAs.cnf
p cnf 179 347
c 1 FQAs
c 2 Security
c 3 Usability
c 4 Persistence
c 5 ContextAwareness
c 6 Performance
c 7 Encryption
c 8 Authentication
c 9 Hashing
c 10 Confidentiality
c 11 Privacy
c 12 Integrity
c 13 Non_Repudiation
c 14 EncryptionAlgorithms
c 15 Asymmetric
c 16 Symmetric
c 17 RSA
c 18 DSA
c 19 ECDSA
c 20 AES
c 21 DESede
c 22 Blowfish
c 23 DES
c 24 KeySize
c 25 EncryptionImplementations
c 26 JavaxCrypto
c 27 BouncyCastle
c 28 EncryptionOperations
c 29 Encrypt
c 30 Decrypt
c 31 Mode
c 32 CBC
c 33 ECB
c 34 CFB
c 35 CTR
c 36 CTS
c 37 Padding
c 38 PKCS5
c 39 PKCS1
c 40 OAEP
c 41 AuthenticationImplementations
c 42 JAAS
c 43 SpringSecurity
c 44 AuthenticationOperations
c 45 Authenticate
c 46 AuthenticationMechanism
c 47 UserPassword
c 48 DigitalCertificate
c 49 Biometric
c 50 SocialID
c 51 Pin
c 52 MatrixCode
c 53 PseudonymousCertificate
c 54 PasswordLength
c 55 PasswordType
c 56 Numeric
c 57 Alphanumeric
c 58 SpecialChars
c 59 LimitedSession
c 60 AuthenticationLogging
c 61 AnonymousUser
c 62 HashingImplementations
c 63 JavaSecurityMessageDigest
c 64 Guava
c 65 HashingOperations
c 66 Hash
c 67 HashingAlgorithms
c 68 MD5
c 69 SHA1
c 70 SHA256
c 71 SHA512
c 72 Logging
c 73 ContextualHelp
c 74 ExecutionControl
c 75 Internationalization
c 76 Feedback
c 77 LoggingOperations
c 78 Log
c 79 LoggingImplementations
c 80 Log4J
c 81 LogBack
c 82 JavaUtilLogging
c 83 SimpleImplementationSLF4J
c 84 Handler
c 85 ConsoleLog
c 86 FileLog
c 87 DatabaseLog
c 88 Format
c 89 TXT
c 90 XML
c 91 HTML
c 92 JSON
c 93 Level
c 94 Trace
c 95 Debug
c 96 Info
c 97 Warning
c 98 Error
c 99 CypheredMessages
c 100 HistoryLog
c 101 ErrorLog
c 102 TraceFile
c 103 ContextualHelpOperations
c 104 ShowHelp
c 105 ContextualHelpImplementations
c 106 JavaWizardAPI
c 107 HelpType
c 108 Tutorial
c 109 Wizard
c 110 UserType
c 111 Beginner
c 112 Intermediate
c 113 Advanced
c 114 Expert
c 115 AuthenticatedUser
c 116 ExecutionControl_1
c 117 Undo
c 118 Redo
c 119 Cancel
c 120 GoBack
c 121 Shortcuts
c 122 Locale
c 123 InteractionFeedback
c 124 ProgressFeedback
c 125 SystemStatusDisplay
c 126 Alerts
c 127 FileStorage
c 128 DatabaseStorage
c 129 FileStorageOperations
c 130 CreateFile
c 131 ModifyFile
c 132 DeleteFile
c 133 FileType
c 134 Binary
c 135 TXTFile
c 136 XMLFile
c 137 JSONFile
c 138 FileStorageImplementations
c 139 JavaIO
c 140 TemporalFile
c 141 DatabaseStorageOperations
c 142 Store
c 143 Query
c 144 DatabaseStorageImplementations
c 145 MySQL
c 146 MongoDB
c 147 OracleDB
c 148 DatabaseType
c 149 Relational
c 150 NoSQL
c 151 DataType
c 152 Integers
c 153 Strings
c 154 Floats
c 155 Objects
c 156 SecureDatabase
c 157 LocationAware
c 158 TimeAware
c 159 DeviceAware
c 160 UserAware
c 161 EnvironmentAware
c 162 GPS
c 163 WiFiLocation
c 164 BatteryStatus
c 165 IRSensor
c 166 Caching
c 167 CachingOperations
c 168 CacheStore
c 169 CacheQuery
c 170 CacheUpdate
c 171 CachingImplementations
c 172 JavaCachingSystem
c 173 Caffeine
c 174 MaxSizeCache
c 175 CacheType
c 176 LocalCache
c 177 RemoteCache
c 178 MaxLifeSeconds
c 179 EternalObjects
1
-1 2 3 4 5 6
-2 1
-3 1
-4 1
-5 1
-6 1
-2 7 8 9 10 11 12 13
-7 2
-8 2
-9 2
-10 2
-11 2
-12 2
-13 2
-7 14
-14 7
-14 15 16
-15 -16
-15 14
-16 14
-15 17 18 19
-17 -18
-17 -19
-17 15
-18 -19
-18 15
-19 15
-16 20 21 22 23
-20 -21
-20 -22
-20 -23
-20 16
-21 -22
-21 -23
-21 16
-22 -23
-22 16
-23 16
-24 7
-7 25
-25 7
-25 26 27
-26 -27
-26 25
-27 25
-7 28
-28 7
-28 29 30
-29 -30
-29 28
-30 28
-7 31
-31 7
-31 32 33 34 35 36
-32 -33
-32 -34
-32 -35
-32 -36
-32 31
-33 -34
-33 -35
-33 -36
-33 31
-34 -35
-34 -36
-34 31
-35 -36
-35 31
-36 31
-7 37
-37 7
-37 38 39 40
-38 -39
-38 -40
-38 37
-39 -40
-39 37
-40 37
-8 41
-41 8
-41 42 43
-42 -43
-42 41
-43 41
-8 44
-44 8
-44 45
-45 44
-8 46
-46 8
-46 47 48 49 50 51 52
-47 -48
-47 -49
-47 -50
-47 -51
-47 -52
-47 46
-48 -49
-48 -50
-48 -51
-48 -52
-48 46
-49 -50
-49 -51
-49 -52
-49 46
-50 -51
-50 -52
-50 46
-51 -52
-51 46
-52 46
-53 48
-54 8
-55 8
-55 56 57 58
-56 -57
-56 -58
-56 55
-57 -58
-57 55
-58 55
-59 8
-60 8
-61 8
-9 62
-62 9
-62 63 64
-63 -64
-63 62
-64 62
-9 65
-65 9
-65 66
-66 65
-9 67
-67 9
-67 68 69 70 71
-68 -69
-68 -70
-68 -71
-68 67
-69 -70
-69 -71
-69 67
-70 -71
-70 67
-71 67
-3 72 73 74 75 76
-72 3
-73 3
-74 3
-75 3
-76 3
-72 77
-77 72
-77 78
-78 77
-72 79
-79 72
-79 80 81 82 83
-80 -81
-80 -82
-80 -83
-80 79
-81 -82
-81 -83
-81 79
-82 -83
-82 79
-83 79
-72 84
-84 72
-84 85 86 87
-85 -86
-85 -87
-85 84
-86 -87
-86 84
-87 84
-72 88
-88 72
-88 89 90 91 92
-89 -90
-89 -91
-89 -92
-89 88
-90 -91
-90 -92
-90 88
-91 -92
-91 88
-92 88
-72 93
-93 72
-93 94 95 96 97 98
-94 93
-95 93
-96 93
-97 93
-98 93
-99 72
-100 72
-101 72
-102 101
-73 103
-103 73
-103 104
-104 103
-73 105
-105 73
-105 106
-106 105
-73 107
-107 73
-107 108 109
-108 107
-109 107
-73 110
-110 73
-110 111 112 113 114
-111 110
-112 110
-113 110
-114 110
-115 73
-74 116
-116 74
-116 117 118 119 120
-117 116
-118 116
-119 116
-120 116
-121 74
-75 122
-122 75
-76 123 124 125 126
-123 76
-124 76
-125 76
-126 76
-4 127 128
-127 4
-128 4
-127 129
-129 127
-129 130 131 132
-130 -131
-130 -132
-130 129
-131 -132
-131 129
-132 129
-127 133
-133 127
-133 134 135 136 137
-134 -135
-134 -136
-134 -137
-134 133
-135 -136
-135 -137
-135 133
-136 -137
-136 133
-137 133
-127 138
-138 127
-138 139
-139 138
-140 127
-128 141
-141 128
-141 142 143
-142 -143
-142 141
-143 141
-128 144
-144 128
-144 145 146 147
-145 -146
-145 -147
-145 144
-146 -147
-146 144
-147 144
-128 148
-148 128
-148 149 150
-149 -150
-149 148
-150 148
-128 151
-151 128
-151 152 153 154 155
-152 151
-153 151
-154 151
-155 151
-156 128
-5 157 158 159 160 161
-157 5
-158 5
-159 5
-160 5
-161 5
-157 162 163
-162 157
-163 157
-159 164 165
-164 159
-165 159
-6 166
-166 6
-166 167
-167 166
-167 168 169 170
-168 -169
-168 -170
-168 167
-169 -170
-169 167
-170 167
-166 171
-171 166
-171 172 173
-172 -173
-172 171
-173 171
-166 174
-174 166
-166 175
-175 166
-175 176 177
-176 -177
-176 175
-177 175
-178 166
-179 166
158 -164
126 -164
127 -102
-83 -90
-115 8
-101 98
-100 94